NAME : X-n162-k11
COMMENT : "Generated by Uchoa, Pecin, Pessoa, Poggi, Subramanian, and Vidal (2013)"
TYPE : CVRP
DIMENSION : 162
EDGE_WEIGHT_TYPE : EUC_2D
CAPACITY : 1174
NODE_COORD_SECTION
1 500 500
2 300 71
3 434 4
4 257 798
5 718 17
6 879 206
7 929 330
8 353 793
9 389 540
10 202 55
11 417 253
12 921 572
13 94 788
14 870 327
15 281 124
16 411 288
17 882 116
18 307 240
19 359 935
20 352 858
21 502 776
22 269 33
23 440 814
24 850 461
25 909 404
26 339 458
27 767 535
28 86 47
29 758 532
30 426 282
31 534 10
32 826 830
33 911 79
34 270 791
35 391 794
36 908 787
37 929 858
38 938 281
39 941 579
40 752 162
41 579 68
42 323 570
43 238 700
44 853 970
45 329 805
46 651 486
47 291 631
48 286 481
49 855 547
50 972 378
51 561 490
52 205 741
53 528 672
54 664 605
55 462 532
56 340 54
57 929 941
58 936 46
59 864 654
60 501 495
61 339 10
62 324 595
63 585 893
64 73 401
65 244 926
66 190 659
67 900 929
68 525 878
69 832 622
70 228 662
71 36 578
72 897 292
73 492 426
74 958 546
75 674 303
76 312 781
77 320 557
78 226 264
79 446 702
80 470 746
81 613 620
82 710 289
83 439 15
84 148 352
85 371 115
86 414 108
87 693 626
88 703 31
89 798 932
90 294 172
91 710 588
92 701 370
93 620 270
94 632 147
95 909 889
96 745 985
97 771 946
98 248 178
99 265 408
100 808 699
101 867 883
102 725 58
103 688 875
104 546 149
105 108 303
106 401 225
107 824 878
108 336 115
109 683 219
110 428 19
111 407 68
112 691 745
113 624 46
114 6 539
115 652 923
116 513 262
117 639 753
118 112 114
119 478 46
120 440 219
121 780 270
122 426 121
123 354 105
124 885 963
125 403 32
126 617 230
127 370 169
128 403 386
129 392 52
130 769 967
131 811 683
132 968 26
133 644 82
134 339 122
135 413 22
136 459 198
137 643 391
138 733 200
139 348 158
140 361 229
141 726 749
142 480 250
143 837 983
144 384 134
145 427 197
146 731 579
147 741 135
148 442 105
149 421 23
150 315 178
151 676 530
152 729 107
153 668 471
154 391 79
155 715 728
156 592 325
157 542 296
158 607 43
159 727 283
160 449 102
161 394 101
162 223 283
PICKUP_AND_DELIVERY_SECTION
1 0 0 1000000000 0 0 0
2 0 0 1000000000 0 0 60
3 0 0 1000000000 0 0 88
4 0 0 1000000000 0 0 74
5 0 0 1000000000 0 56 0
6 0 0 1000000000 0 0 95
7 0 0 1000000000 0 0 95
8 0 0 1000000000 0 0 83
9 0 0 1000000000 0 94 0
10 0 0 1000000000 0 0 93
11 0 0 1000000000 0 0 79
12 0 0 1000000000 0 0 61
13 0 0 1000000000 0 83 0
14 0 0 1000000000 0 0 68
15 0 0 1000000000 0 0 86
16 0 0 1000000000 0 0 96
17 0 0 1000000000 0 75 0
18 0 0 1000000000 0 0 67
19 0 0 1000000000 0 0 74
20 0 0 1000000000 0 0 92
21 0 0 1000000000 0 71 0
22 0 0 1000000000 0 0 92
23 0 0 1000000000 0 0 74
24 0 0 1000000000 0 0 82
25 0 0 1000000000 0 88 0
26 0 0 1000000000 0 0 95
27 0 0 1000000000 0 0 69
28 0 0 1000000000 0 0 100
29 0 0 1000000000 0 91 0
30 0 0 1000000000 0 0 83
31 0 0 1000000000 0 0 78
32 0 0 1000000000 0 0 63
33 0 0 1000000000 0 88 0
34 0 0 1000000000 0 0 84
35 0 0 1000000000 0 0 59
36 0 0 1000000000 0 0 77
37 0 0 1000000000 0 89 0
38 0 0 1000000000 0 0 74
39 0 0 1000000000 0 0 74
40 0 0 1000000000 0 0 85
41 0 0 1000000000 0 71 0
42 0 0 1000000000 0 0 72
43 0 0 1000000000 0 0 61
44 0 0 1000000000 0 0 99
45 0 0 1000000000 0 65 0
46 0 0 1000000000 0 0 88
47 0 0 1000000000 0 0 75
48 0 0 1000000000 0 0 82
49 0 0 1000000000 0 100 0
50 0 0 1000000000 0 0 96
51 0 0 1000000000 0 0 89
52 0 0 1000000000 0 0 97
53 0 0 1000000000 0 52 0
54 0 0 1000000000 0 0 57
55 0 0 1000000000 0 0 54
56 0 0 1000000000 0 0 64
57 0 0 1000000000 0 78 0
58 0 0 1000000000 0 0 67
59 0 0 1000000000 0 0 80
60 0 0 1000000000 0 0 85
61 0 0 1000000000 0 83 0
62 0 0 1000000000 0 0 54
63 0 0 1000000000 0 0 68
64 0 0 1000000000 0 0 80
65 0 0 1000000000 0 76 0
66 0 0 1000000000 0 0 100
67 0 0 1000000000 0 0 68
68 0 0 1000000000 0 0 84
69 0 0 1000000000 0 71 0
70 0 0 1000000000 0 0 65
71 0 0 1000000000 0 0 86
72 0 0 1000000000 0 0 53
73 0 0 1000000000 0 57 0
74 0 0 1000000000 0 0 83
75 0 0 1000000000 0 0 62
76 0 0 1000000000 0 0 95
77 0 0 1000000000 0 84 0
78 0 0 1000000000 0 0 63
79 0 0 1000000000 0 0 59
80 0 0 1000000000 0 0 98
81 0 0 1000000000 0 100 0
82 0 0 1000000000 0 0 57
83 0 0 1000000000 0 0 66
84 0 0 1000000000 0 0 79
85 0 0 1000000000 0 66 0
86 0 0 1000000000 0 0 87
87 0 0 1000000000 0 0 53
88 0 0 1000000000 0 0 99
89 0 0 1000000000 0 72 0
90 0 0 1000000000 0 0 87
91 0 0 1000000000 0 0 58
92 0 0 1000000000 0 0 78
93 0 0 1000000000 0 68 0
94 0 0 1000000000 0 0 60
95 0 0 1000000000 0 0 66
96 0 0 1000000000 0 0 86
97 0 0 1000000000 0 61 0
98 0 0 1000000000 0 0 91
99 0 0 1000000000 0 0 64
100 0 0 1000000000 0 0 90
101 0 0 1000000000 0 69 0
102 0 0 1000000000 0 0 73
103 0 0 1000000000 0 0 55
104 0 0 1000000000 0 0 59
105 0 0 1000000000 0 94 0
106 0 0 1000000000 0 0 58
107 0 0 1000000000 0 0 82
108 0 0 1000000000 0 0 96
109 0 0 1000000000 0 51 0
110 0 0 1000000000 0 0 52
111 0 0 1000000000 0 0 65
112 0 0 1000000000 0 0 61
113 0 0 1000000000 0 65 0
114 0 0 1000000000 0 0 85
115 0 0 1000000000 0 0 56
116 0 0 1000000000 0 0 83
117 0 0 1000000000 0 76 0
118 0 0 1000000000 0 0 89
119 0 0 1000000000 0 0 100
120 0 0 1000000000 0 0 56
121 0 0 1000000000 0 60 0
122 0 0 1000000000 0 0 89
123 0 0 1000000000 0 0 57
124 0 0 1000000000 0 0 72
125 0 0 1000000000 0 59 0
126 0 0 1000000000 0 0 59
127 0 0 1000000000 0 0 99
128 0 0 1000000000 0 0 51
129 0 0 1000000000 0 80 0
130 0 0 1000000000 0 0 89
131 0 0 1000000000 0 0 100
132 0 0 1000000000 0 0 91
133 0 0 1000000000 0 96 0
134 0 0 1000000000 0 0 57
135 0 0 1000000000 0 0 59
136 0 0 1000000000 0 0 74
137 0 0 1000000000 0 69 0
138 0 0 1000000000 0 0 81
139 0 0 1000000000 0 0 73
140 0 0 1000000000 0 0 96
141 0 0 1000000000 0 83 0
142 0 0 1000000000 0 0 63
143 0 0 1000000000 0 0 68
144 0 0 1000000000 0 0 96
145 0 0 1000000000 0 86 0
146 0 0 1000000000 0 0 62
147 0 0 1000000000 0 0 62
148 0 0 1000000000 0 0 54
149 0 0 1000000000 0 98 0
150 0 0 1000000000 0 0 70
151 0 0 1000000000 0 0 69
152 0 0 1000000000 0 0 57
153 0 0 1000000000 0 81 0
154 0 0 1000000000 0 0 53
155 0 0 1000000000 0 0 78
156 0 0 1000000000 0 0 64
157 0 0 1000000000 0 72 0
158 0 0 1000000000 0 0 59
159 0 0 1000000000 0 0 92
160 0 0 1000000000 0 0 96
161 0 0 1000000000 0 73 0
162 0 0 1000000000 0 0 78
